0 299332 164798 306365 528534 501651 838218 
61872 0 807575 847355 907160 513808 867660 
301477 172511 0 108966 761656 880574 951547 
655799 686266 156536 0 935355 725475 374249 
616882 754979 607740 786144 0 37588 837212 
437836 436923 742105 228805 950152 0 564483 
383280 190396 585556 128896 698566 42077 0 
